c "528178.clq"
p edge 100 1344
e 1 17
e 1 18
e 1 19
e 1 20
e 1 21
e 1 22
e 1 26
e 1 27
e 1 28
e 1 29
e 1 31
e 1 35
e 1 37
e 1 39
e 1 44
e 1 47
e 1 49
e 1 50
e 1 51
e 1 54
e 1 57
e 1 59
e 1 61
e 1 65
e 1 71
e 1 74
e 1 78
e 1 79
e 1 85
e 1 91
e 1 99
e 1 100
e 2 17
e 2 18
e 2 19
e 2 20
e 2 23
e 2 24
e 2 25
e 2 27
e 2 29
e 2 32
e 2 33
e 2 37
e 2 39
e 2 53
e 2 55
e 2 56
e 2 58
e 2 59
e 2 66
e 2 68
e 2 70
e 2 72
e 2 75
e 2 82
e 2 83
e 2 85
e 2 91
e 2 93
e 2 95
e 2 97
e 2 99
e 2 100
e 3 17
e 3 18
e 3 19
e 3 20
e 3 21
e 3 22
e 3 23
e 3 24
e 3 25
e 3 26
e 3 27
e 3 28
e 3 29
e 3 30
e 3 31
e 3 32
e 3 33
e 3 34
e 3 39
e 3 45
e 3 46
e 3 50
e 3 51
e 3 52
e 3 54
e 3 55
e 3 59
e 3 63
e 3 67
e 3 68
e 3 69
e 3 84
e 3 86
e 3 87
e 3 97
e 3 98
e 4 17
e 4 18
e 4 19
e 4 20
e 4 21
e 4 23
e 4 24
e 4 25
e 4 30
e 4 32
e 4 34
e 4 38
e 4 41
e 4 43
e 4 45
e 4 53
e 4 59
e 4 75
e 4 88
e 4 99
e 5 17
e 5 18
e 5 21
e 5 24
e 5 36
e 5 40
e 5 45
e 5 54
e 5 70
e 5 78
e 5 97
e 6 17
e 6 77
e 7 17
e 7 18
e 7 19
e 7 20
e 7 21
e 7 22
e 7 23
e 7 25
e 7 27
e 7 29
e 7 30
e 7 31
e 7 32
e 7 35
e 7 40
e 7 41
e 7 43
e 7 44
e 7 45
e 7 57
e 7 58
e 7 59
e 7 61
e 7 65
e 7 66
e 7 78
e 7 85
e 7 89
e 7 91
e 7 95
e 8 17
e 8 18
e 8 19
e 8 20
e 8 22
e 8 23
e 8 26
e 8 30
e 8 32
e 8 34
e 8 35
e 8 44
e 8 48
e 8 49
e 8 50
e 8 51
e 8 53
e 8 64
e 8 71
e 8 79
e 8 81
e 8 87
e 8 90
e 8 95
e 9 17
e 9 18
e 9 19
e 9 20
e 9 21
e 9 24
e 9 28
e 9 32
e 9 38
e 9 40
e 9 47
e 9 49
e 9 50
e 9 59
e 9 65
e 9 66
e 9 67
e 9 95
e 9 96
e 10 17
e 10 18
e 10 19
e 10 20
e 10 21
e 10 22
e 10 23
e 10 24
e 10 25
e 10 26
e 10 27
e 10 28
e 10 29
e 10 30
e 10 31
e 10 33
e 10 35
e 10 36
e 10 44
e 10 55
e 10 61
e 10 63
e 10 64
e 10 70
e 10 74
e 10 82
e 10 89
e 10 96
e 10 98
e 10 100
e 11 17
e 11 18
e 11 19
e 11 20
e 11 21
e 11 22
e 11 23
e 11 24
e 11 26
e 11 33
e 11 34
e 11 38
e 11 41
e 11 43
e 11 47
e 11 48
e 11 52
e 11 53
e 11 56
e 11 58
e 11 59
e 11 60
e 11 63
e 11 65
e 11 66
e 11 73
e 11 79
e 11 80
e 11 84
e 11 91
e 11 94
e 11 95
e 11 97
e 12 17
e 12 18
e 12 19
e 12 20
e 12 22
e 12 24
e 12 25
e 12 27
e 12 28
e 12 29
e 12 48
e 12 51
e 12 68
e 12 80
e 13 17
e 13 18
e 13 19
e 13 20
e 13 21
e 13 22
e 13 23
e 13 25
e 13 29
e 13 32
e 13 33
e 13 36
e 13 41
e 13 44
e 13 46
e 13 48
e 13 54
e 13 55
e 13 56
e 13 58
e 13 61
e 13 62
e 13 64
e 13 74
e 13 79
e 13 80
e 13 93
e 13 95
e 13 100
e 14 17
e 14 18
e 14 19
e 14 20
e 14 21
e 14 22
e 14 23
e 14 26
e 14 27
e 14 28
e 14 29
e 14 30
e 14 31
e 14 32
e 14 34
e 14 41
e 14 42
e 14 44
e 14 48
e 14 49
e 14 51
e 14 56
e 14 57
e 14 75
e 14 76
e 14 88
e 14 93
e 15 17
e 15 18
e 15 19
e 15 20
e 15 21
e 15 22
e 15 24
e 15 25
e 15 26
e 15 27
e 15 28
e 15 30
e 15 33
e 15 34
e 15 35
e 15 36
e 15 37
e 15 42
e 15 44
e 15 45
e 15 46
e 15 47
e 15 49
e 15 51
e 15 54
e 15 55
e 15 57
e 15 60
e 15 62
e 15 67
e 15 70
e 15 73
e 15 76
e 15 78
e 15 84
e 15 90
e 15 93
e 15 94
e 15 99
e 15 100
e 16 17
e 16 18
e 16 19
e 16 21
e 16 22
e 16 23
e 16 24
e 16 26
e 16 32
e 16 37
e 16 38
e 16 48
e 16 54
e 16 55
e 16 58
e 16 69
e 16 71
e 16 72
e 16 74
e 16 87
e 16 98
e 17 18
e 17 19
e 17 20
e 17 21
e 17 22
e 17 23
e 17 24
e 17 25
e 17 26
e 17 28
e 17 29
e 17 31
e 17 32
e 17 33
e 17 34
e 17 35
e 17 37
e 17 38
e 17 39
e 17 40
e 17 41
e 17 42
e 17 43
e 17 44
e 17 45
e 17 46
e 17 47
e 17 48
e 17 53
e 17 54
e 17 56
e 17 57
e 17 60
e 17 63
e 17 64
e 17 65
e 17 70
e 17 71
e 17 73
e 17 76
e 17 80
e 17 82
e 17 85
e 17 86
e 17 89
e 17 91
e 17 92
e 17 93
e 17 97
e 17 100
e 18 19
e 18 20
e 18 21
e 18 22
e 18 23
e 18 24
e 18 25
e 18 26
e 18 27
e 18 28
e 18 29
e 18 30
e 18 32
e 18 33
e 18 34
e 18 36
e 18 38
e 18 39
e 18 40
e 18 41
e 18 42
e 18 44
e 18 45
e 18 46
e 18 50
e 18 54
e 18 58
e 18 60
e 18 63
e 18 68
e 18 72
e 18 75
e 18 76
e 18 78
e 18 82
e 18 85
e 18 86
e 18 88
e 18 91
e 18 92
e 18 95
e 18 99
e 18 100
e 19 20
e 19 21
e 19 22
e 19 23
e 19 24
e 19 25
e 19 26
e 19 27
e 19 28
e 19 29
e 19 30
e 19 31
e 19 33
e 19 34
e 19 35
e 19 36
e 19 37
e 19 38
e 19 40
e 19 41
e 19 43
e 19 46
e 19 48
e 19 49
e 19 50
e 19 52
e 19 53
e 19 56
e 19 58
e 19 60
e 19 61
e 19 62
e 19 63
e 19 66
e 19 67
e 19 68
e 19 69
e 19 70
e 19 74
e 19 75
e 19 76
e 19 77
e 19 79
e 19 85
e 19 87
e 19 89
e 19 90
e 19 92
e 19 93
e 19 94
e 19 97
e 19 98
e 19 99
e 19 100
e 20 21
e 20 22
e 20 23
e 20 24
e 20 25
e 20 26
e 20 27
e 20 28
e 20 29
e 20 31
e 20 32
e 20 33
e 20 35
e 20 38
e 20 39
e 20 40
e 20 41
e 20 42
e 20 43
e 20 45
e 20 46
e 20 50
e 20 51
e 20 52
e 20 54
e 20 56
e 20 58
e 20 64
e 20 65
e 20 69
e 20 71
e 20 73
e 20 77
e 20 78
e 20 81
e 20 92
e 20 93
e 20 96
e 21 22
e 21 23
e 21 24
e 21 25
e 21 26
e 21 27
e 21 28
e 21 29
e 21 30
e 21 31
e 21 32
e 21 37
e 21 38
e 21 39
e 21 40
e 21 41
e 21 42
e 21 48
e 21 50
e 21 53
e 21 54
e 21 56
e 21 58
e 21 60
e 21 62
e 21 63
e 21 67
e 21 69
e 21 70
e 21 71
e 21 77
e 21 88
e 21 91
e 21 96
e 22 23
e 22 24
e 22 25
e 22 27
e 22 28
e 22 30
e 22 31
e 22 33
e 22 34
e 22 35
e 22 36
e 22 37
e 22 39
e 22 44
e 22 52
e 22 55
e 22 56
e 22 57
e 22 61
e 22 66
e 22 72
e 22 75
e 22 78
e 22 79
e 22 88
e 22 95
e 22 100
e 23 25
e 23 26
e 23 28
e 23 29
e 23 30
e 23 31
e 23 33
e 23 34
e 23 35
e 23 36
e 23 37
e 23 42
e 23 45
e 23 46
e 23 49
e 23 50
e 23 51
e 23 52
e 23 53
e 23 54
e 23 56
e 23 57
e 23 60
e 23 61
e 23 62
e 23 64
e 23 65
e 23 67
e 23 76
e 23 80
e 23 81
e 23 82
e 23 84
e 23 85
e 23 90
e 23 95
e 24 25
e 24 26
e 24 27
e 24 30
e 24 31
e 24 33
e 24 34
e 24 35
e 24 36
e 24 37
e 24 39
e 24 40
e 24 46
e 24 47
e 24 48
e 24 52
e 24 58
e 24 61
e 24 62
e 24 64
e 24 68
e 24 70
e 24 73
e 24 77
e 24 81
e 24 83
e 24 84
e 24 85
e 24 90
e 24 94
e 24 97
e 25 26
e 25 27
e 25 30
e 25 32
e 25 33
e 25 34
e 25 35
e 25 36
e 25 37
e 25 42
e 25 44
e 25 45
e 25 46
e 25 47
e 25 50
e 25 51
e 25 52
e 25 53
e 25 60
e 25 67
e 25 72
e 25 73
e 25 76
e 25 77
e 25 83
e 25 84
e 25 92
e 25 93
e 25 95
e 26 27
e 26 28
e 26 29
e 26 31
e 26 36
e 26 38
e 26 39
e 26 40
e 26 42
e 26 43
e 26 45
e 26 46
e 26 48
e 26 54
e 26 59
e 26 61
e 26 64
e 26 66
e 26 69
e 26 73
e 26 76
e 26 79
e 26 80
e 26 87
e 26 91
e 26 92
e 26 94
e 26 96
e 27 28
e 27 30
e 27 31
e 27 32
e 27 33
e 27 42
e 27 43
e 27 44
e 27 45
e 27 48
e 27 49
e 27 53
e 27 55
e 27 56
e 27 59
e 27 60
e 27 65
e 27 69
e 27 74
e 27 75
e 27 80
e 27 81
e 27 85
e 28 29
e 28 30
e 28 31
e 28 32
e 28 34
e 28 35
e 28 36
e 28 37
e 28 38
e 28 40
e 28 42
e 28 44
e 28 45
e 28 47
e 28 49
e 28 50
e 28 51
e 28 54
e 28 55
e 28 56
e 28 58
e 28 60
e 28 62
e 28 66
e 28 68
e 28 72
e 28 73
e 28 74
e 28 75
e 28 80
e 28 86
e 28 87
e 28 90
e 28 94
e 28 99
e 29 33
e 29 34
e 29 36
e 29 38
e 29 40
e 29 41
e 29 43
e 29 46
e 29 50
e 29 55
e 29 56
e 29 57
e 29 62
e 29 64
e 29 65
e 29 67
e 29 72
e 29 74
e 29 75
e 29 80
e 29 85
e 29 87
e 29 89
e 30 31
e 30 36
e 30 37
e 30 38
e 30 39
e 30 41
e 30 42
e 30 52
e 30 59
e 30 64
e 30 65
e 30 66
e 30 78
e 30 80
e 30 81
e 30 83
e 30 84
e 30 96
e 30 100
e 31 34
e 31 35
e 31 39
e 31 43
e 31 56
e 31 62
e 31 64
e 31 66
e 31 71
e 31 79
e 31 82
e 31 87
e 31 91
e 31 96
e 31 97
e 31 100
e 32 35
e 32 37
e 32 39
e 32 41
e 32 43
e 32 44
e 32 45
e 32 47
e 32 49
e 32 55
e 32 59
e 32 64
e 32 67
e 32 72
e 32 77
e 32 78
e 32 84
e 32 88
e 32 95
e 32 96
e 32 99
e 33 36
e 33 37
e 33 38
e 33 39
e 33 42
e 33 44
e 33 47
e 33 51
e 33 57
e 33 58
e 33 61
e 33 75
e 33 76
e 33 84
e 33 87
e 33 92
e 33 97
e 34 35
e 34 37
e 34 40
e 34 43
e 34 44
e 34 60
e 34 61
e 34 64
e 34 70
e 34 71
e 34 72
e 34 74
e 34 79
e 34 84
e 34 96
e 34 98
e 35 36
e 35 42
e 35 47
e 35 50
e 35 51
e 35 54
e 35 55
e 35 57
e 35 65
e 35 67
e 35 68
e 35 70
e 35 92
e 36 38
e 36 39
e 36 40
e 36 41
e 36 42
e 36 43
e 36 47
e 36 48
e 36 49
e 36 52
e 36 53
e 36 54
e 36 61
e 36 65
e 36 67
e 36 68
e 36 70
e 36 73
e 36 74
e 36 77
e 36 79
e 36 83
e 36 87
e 36 90
e 36 93
e 36 97
e 36 98
e 37 38
e 37 39
e 37 40
e 37 43
e 37 45
e 37 46
e 37 47
e 37 52
e 37 53
e 37 56
e 37 64
e 37 66
e 37 68
e 37 69
e 37 72
e 37 73
e 37 75
e 37 76
e 37 78
e 37 81
e 37 82
e 37 86
e 37 89
e 37 100
e 38 40
e 38 46
e 38 55
e 38 58
e 38 60
e 38 61
e 38 63
e 38 64
e 38 65
e 38 68
e 38 70
e 38 74
e 38 79
e 38 82
e 38 87
e 38 90
e 38 92
e 38 95
e 39 41
e 39 42
e 39 46
e 39 50
e 39 51
e 39 53
e 39 55
e 39 57
e 39 59
e 39 65
e 39 80
e 39 82
e 39 91
e 39 94
e 40 41
e 40 46
e 40 47
e 40 49
e 40 50
e 40 52
e 40 54
e 40 59
e 40 60
e 40 67
e 40 79
e 40 81
e 40 85
e 40 91
e 40 95
e 41 43
e 41 51
e 41 60
e 41 73
e 41 76
e 41 81
e 41 83
e 41 86
e 41 87
e 41 89
e 41 91
e 41 93
e 41 100
e 42 43
e 42 47
e 42 48
e 42 49
e 42 50
e 42 51
e 42 59
e 42 61
e 42 63
e 42 66
e 42 69
e 42 71
e 42 72
e 42 75
e 42 77
e 42 86
e 42 88
e 42 92
e 42 94
e 43 51
e 43 57
e 43 59
e 43 62
e 43 63
e 43 68
e 43 81
e 43 92
e 43 93
e 43 100
e 44 45
e 44 47
e 44 48
e 44 56
e 44 65
e 44 74
e 44 80
e 44 82
e 44 83
e 44 88
e 44 92
e 45 53
e 45 57
e 45 65
e 45 96
e 45 98
e 46 48
e 46 49
e 46 52
e 46 53
e 46 62
e 46 63
e 46 66
e 46 67
e 46 68
e 46 70
e 46 73
e 46 86
e 46 98
e 47 49
e 47 52
e 47 53
e 47 59
e 47 61
e 47 67
e 47 70
e 47 82
e 48 49
e 48 72
e 48 77
e 48 84
e 48 85
e 48 88
e 48 98
e 49 52
e 49 58
e 49 63
e 49 69
e 49 80
e 49 83
e 49 85
e 49 86
e 49 88
e 49 92
e 49 94
e 50 52
e 50 57
e 50 61
e 50 62
e 50 66
e 50 79
e 50 85
e 50 89
e 50 90
e 50 95
e 50 99
e 51 57
e 51 69
e 51 72
e 52 58
e 52 62
e 52 68
e 52 69
e 52 71
e 52 74
e 52 76
e 52 78
e 52 82
e 52 83
e 52 89
e 52 90
e 52 98
e 52 99
e 53 55
e 53 58
e 53 62
e 53 63
e 53 72
e 53 77
e 53 86
e 53 91
e 53 97
e 54 55
e 54 63
e 54 68
e 54 71
e 54 76
e 54 77
e 54 93
e 55 57
e 55 60
e 55 66
e 55 69
e 55 71
e 55 78
e 55 81
e 55 86
e 55 88
e 55 90
e 56 67
e 56 70
e 56 71
e 56 74
e 56 75
e 56 77
e 56 83
e 56 86
e 56 91
e 56 94
e 56 96
e 56 99
e 57 63
e 57 68
e 57 74
e 57 82
e 57 87
e 57 88
e 57 92
e 57 93
e 57 95
e 57 98
e 58 60
e 58 66
e 58 71
e 58 83
e 58 84
e 58 87
e 59 62
e 59 63
e 59 69
e 59 74
e 59 78
e 59 80
e 59 82
e 59 83
e 59 85
e 59 89
e 59 96
e 60 67
e 60 69
e 60 71
e 60 73
e 60 80
e 60 86
e 60 88
e 60 89
e 61 62
e 61 69
e 61 70
e 61 71
e 61 72
e 61 73
e 61 76
e 61 79
e 61 82
e 61 93
e 62 81
e 62 98
e 63 64
e 63 73
e 63 87
e 63 93
e 63 96
e 64 75
e 64 81
e 64 91
e 65 83
e 65 95
e 65 97
e 66 77
e 66 78
e 66 81
e 66 84
e 66 86
e 66 88
e 66 99
e 67 76
e 67 85
e 67 89
e 68 75
e 68 84
e 68 90
e 68 97
e 69 73
e 69 77
e 69 78
e 69 96
e 70 72
e 70 77
e 70 87
e 70 90
e 72 79
e 72 84
e 72 94
e 73 75
e 73 76
e 73 78
e 73 79
e 73 80
e 73 81
e 73 86
e 73 90
e 73 94
e 73 98
e 73 99
e 74 83
e 74 89
e 74 96
e 75 89
e 75 90
e 75 94
e 75 98
e 76 81
e 77 83
e 78 98
e 79 82
e 79 86
e 79 88
e 79 89
e 79 94
e 80 91
e 80 96
e 81 83
e 81 90
e 81 99
e 83 84
e 83 89
e 83 92
e 86 88
e 86 94
e 86 97
e 86 99
e 89 92
e 89 93
e 89 97
e 89 99
e 90 94
e 91 97
e 95 100
e 96 98
e 96 100
